HUN,8,6,420
0,26,1,19,4,5,5,19,3,28,2,25
4,15,0,1,3,13,5,30,2,2,1,19
4,25,0,23,2,3,5,28,3,13,1,2
4,12,5,20,2,17,0,23,1,9,3,23
5,4,1,14,0,22,3,15,2,13,4,3
0,26,4,19,3,25,5,3,2,25,1,10
1,27,0,3,2,5,4,19,3,20,5,8
5,12,0,16,2,20,1,18,4,17,3,5
